(declare-fun var0 () String)
(assert (RegexIn var0 (RegexConcat (RegexUnion (RegexUnion (Str2Reg "#") (Str2Reg "$$$")) (RegexPlus (Str2Reg "%%"))) (RegexConcat (RegexUnion (RegexUnion (Str2Reg "YY") (Str2Reg "ZZ")) (RegexUnion (Str2Reg "!") (Str2Reg "\"\""))) (RegexConcat (RegexStar (RegexUnion (Str2Reg "W") (Str2Reg "X"))) (RegexConcat (RegexStar (RegexUnion (Str2Reg "U") (Str2Reg "VV"))) (RegexConcat (RegexPlus (RegexStar (Str2Reg "T"))) (RegexConcat (RegexStar (RegexStar (Str2Reg "SS"))) (RegexConcat (RegexUnion (RegexPlus (Str2Reg "Q")) (RegexStar (Str2Reg "RR"))) (RegexConcat (RegexUnion (RegexStar (Str2Reg "NN")) (RegexUnion (Str2Reg "OO") (Str2Reg "PP"))) (RegexConcat (RegexPlus (RegexStar (Str2Reg "MMM"))) (RegexConcat (RegexStar (RegexUnion (Str2Reg "KKK") (Str2Reg "L"))) (RegexConcat (RegexPlus (RegexPlus (Str2Reg "JJ"))) (RegexConcat (RegexStar (RegexPlus (Str2Reg "I"))) (RegexConcat (RegexStar (RegexPlus (Str2Reg "HHH"))) (RegexConcat (RegexUnion (RegexStar (Str2Reg "EE")) (RegexUnion (Str2Reg "FFF") (Str2Reg "G"))) (RegexConcat (RegexPlus (RegexStar (Str2Reg "DDD"))) (RegexConcat (RegexPlus (RegexUnion (Str2Reg "B") (Str2Reg "CCC"))) (RegexConcat (RegexUnion (RegexStar (Str2Reg "z")) (RegexStar (Str2Reg "AAA"))) (RegexConcat (RegexStar (RegexUnion (Str2Reg "xx") (Str2Reg "y"))) (RegexConcat (RegexUnion (RegexStar (Str2Reg "vv")) (RegexStar (Str2Reg "w"))) (RegexConcat (RegexPlus (RegexStar (Str2Reg "uu"))) (RegexConcat (RegexStar (RegexStar (Str2Reg "t"))) (RegexConcat (RegexStar (RegexStar (Str2Reg "ss"))) (RegexConcat (RegexPlus (RegexUnion (Str2Reg "qqq") (Str2Reg "rrr"))) (RegexConcat (RegexPlus (RegexPlus (Str2Reg "pp"))) (RegexConcat (RegexPlus (RegexUnion (Str2Reg "nn") (Str2Reg "ooo"))) (RegexConcat (RegexPlus (RegexPlus (Str2Reg "mm"))) (RegexConcat (RegexStar (RegexStar (Str2Reg "lll"))) (RegexConcat (RegexStar (RegexStar (Str2Reg "kk"))) (RegexConcat (RegexPlus (RegexUnion (Str2Reg "ii") (Str2Reg "jj"))) (RegexConcat (RegexStar (RegexUnion (Str2Reg "g") (Str2Reg "hhh"))) (RegexConcat (RegexPlus (RegexPlus (Str2Reg "fff"))) (RegexConcat (RegexStar (RegexUnion (Str2Reg "ddd") (Str2Reg "ee"))) (RegexConcat (RegexPlus (RegexStar (Str2Reg "cc"))) (RegexConcat (RegexPlus (RegexStar (Str2Reg "b"))) (RegexConcat (RegexUnion (RegexPlus (Str2Reg "99")) (RegexPlus (Str2Reg "aaa"))) (RegexConcat (RegexStar (RegexPlus (Str2Reg "88"))) (RegexConcat (RegexUnion (RegexUnion (Str2Reg "5") (Str2Reg "6")) (RegexPlus (Str2Reg "777"))) (RegexConcat (RegexStar (RegexUnion (Str2Reg "3") (Str2Reg "4"))) (RegexConcat (RegexPlus (RegexPlus (Str2Reg "222"))) (RegexConcat (RegexPlus (RegexUnion (Str2Reg "000") (Str2Reg "11"))) (RegexConcat (RegexUnion (RegexUnion (Str2Reg "|") (Str2Reg "}}")) (RegexPlus (Str2Reg "~~~"))) (RegexConcat (RegexPlus (RegexStar (Str2Reg "{{{"))) (RegexConcat (RegexUnion (RegexPlus (Str2Reg "^")) (RegexUnion (Str2Reg "__") (Str2Reg "``"))) (RegexConcat (RegexStar (RegexUnion (Str2Reg "\\\\\\") (Str2Reg "]"))) (RegexConcat (RegexPlus (RegexUnion (Str2Reg "@@") (Str2Reg "[[["))) (RegexConcat (RegexUnion (RegexPlus (Str2Reg "=")) (RegexUnion (Str2Reg ">") (Str2Reg "??"))) (RegexConcat (RegexStar (RegexUnion (Str2Reg ";") (Str2Reg "<<<"))) (RegexConcat (RegexStar (RegexPlus (Str2Reg ":"))) (RegexConcat (RegexStar (RegexUnion (Str2Reg "...") (Str2Reg "/"))) (RegexConcat (RegexStar (RegexUnion (Str2Reg ",,,") (Str2Reg "---"))) (RegexConcat (RegexUnion (RegexPlus (Str2Reg "***")) (RegexPlus (Str2Reg "++"))) (RegexConcat (RegexPlus (RegexUnion (Str2Reg "(") (Str2Reg ")"))) (RegexConcat (RegexStar (RegexUnion (Str2Reg "&") (Str2Reg "'"))) (RegexConcat (RegexUnion (RegexUnion (Str2Reg "###") (Str2Reg "$")) (RegexStar (Str2Reg "%%%"))) (RegexConcat (RegexStar (RegexStar (Str2Reg "\"\"\""))) (RegexConcat (RegexUnion (RegexStar (Str2Reg "YY")) (RegexUnion (Str2Reg "ZZZ") (Str2Reg "!"))) (RegexConcat (RegexStar (RegexPlus (Str2Reg "XX"))) (RegexConcat (RegexUnion (RegexPlus (Str2Reg "VVV")) (RegexPlus (Str2Reg "WW"))) (RegexConcat (RegexUnion (RegexStar (Str2Reg "TTT")) (RegexPlus (Str2Reg "UUU"))) (RegexConcat (RegexPlus (RegexUnion (Str2Reg "RRR") (Str2Reg "SS"))) (RegexConcat (RegexUnion (RegexPlus (Str2Reg "O")) (RegexUnion (Str2Reg "P") (Str2Reg "QQ"))) (RegexConcat (RegexUnion (RegexPlus (Str2Reg "LL")) (RegexUnion (Str2Reg "MM") (Str2Reg "NN"))) (RegexConcat (RegexPlus (RegexUnion (Str2Reg "JJJ") (Str2Reg "KKK"))) (RegexConcat (RegexStar (RegexPlus (Str2Reg "II"))) (RegexConcat (RegexPlus (RegexStar (Str2Reg "HH"))) (RegexConcat (RegexUnion (RegexUnion (Str2Reg "DDD") (Str2Reg "E")) (RegexUnion (Str2Reg "FF") (Str2Reg "GGG"))) (RegexConcat (RegexPlus (RegexPlus (Str2Reg "CCC"))) (RegexConcat (RegexUnion (RegexStar (Str2Reg "z")) (RegexUnion (Str2Reg "AA") (Str2Reg "BB"))) (RegexConcat (RegexPlus (RegexStar (Str2Reg "yyy"))) (RegexConcat (RegexPlus (RegexUnion (Str2Reg "www") (Str2Reg "x"))) (RegexConcat (RegexPlus (RegexPlus (Str2Reg "v"))) (RegexConcat (RegexPlus (RegexStar (Str2Reg "uu"))) (RegexConcat (RegexPlus (RegexUnion (Str2Reg "s") (Str2Reg "ttt"))) (RegexConcat (RegexUnion (RegexUnion (Str2Reg "o") (Str2Reg "p")) (RegexUnion (Str2Reg "qq") (Str2Reg "r"))) (RegexConcat (RegexPlus (RegexUnion (Str2Reg "m") (Str2Reg "nn"))) (RegexConcat (RegexPlus (RegexPlus (Str2Reg "lll"))) (RegexConcat (RegexStar (RegexUnion (Str2Reg "j") (Str2Reg "kkk"))) (RegexConcat (RegexPlus (RegexStar (Str2Reg "i"))) (RegexConcat (RegexPlus (RegexUnion (Str2Reg "g") (Str2Reg "h"))) (RegexConcat (RegexUnion (RegexPlus (Str2Reg "dd")) (RegexUnion (Str2Reg "e") (Str2Reg "f"))) (RegexConcat (RegexStar (RegexStar (Str2Reg "cc"))) (RegexConcat (RegexPlus (RegexPlus (Str2Reg "bbb"))) (RegexConcat (RegexPlus (RegexStar (Str2Reg "aaa"))) (RegexConcat (RegexUnion (RegexUnion (Str2Reg "7") (Str2Reg "88")) (RegexPlus (Str2Reg "9"))) (RegexConcat (RegexPlus (RegexUnion (Str2Reg "55") (Str2Reg "66"))) (RegexConcat (RegexUnion (RegexPlus (Str2Reg "333")) (RegexStar (Str2Reg "44"))) (RegexConcat (RegexUnion (RegexUnion (Str2Reg "000") (Str2Reg "1")) (RegexStar (Str2Reg "22"))) (RegexConcat (RegexStar (RegexUnion (Str2Reg "}}}") (Str2Reg "~~"))) (RegexConcat (RegexUnion (RegexStar (Str2Reg "```")) (RegexUnion (Str2Reg "{{{") (Str2Reg "|"))) (RegexConcat (RegexPlus (RegexPlus (Str2Reg "___"))) (RegexConcat (RegexStar (RegexUnion (Str2Reg "]]") (Str2Reg "^^^"))) (RegexConcat (RegexUnion (RegexUnion (Str2Reg "@@@") (Str2Reg "[[[")) (RegexStar (Str2Reg "\\"))) (RegexConcat (RegexStar (RegexPlus (Str2Reg "?"))) (RegexConcat (RegexPlus (RegexStar (Str2Reg ">"))) (RegexConcat (RegexPlus (RegexPlus (Str2Reg "="))) (RegexConcat (RegexPlus (RegexStar (Str2Reg "<"))) (RegexConcat (RegexUnion (RegexStar (Str2Reg "::")) (RegexPlus (Str2Reg ";;;"))) (RegexConcat (RegexPlus (RegexPlus (Str2Reg "///"))) (RegexConcat (RegexUnion (RegexStar (Str2Reg ",,,")) (RegexUnion (Str2Reg "--") (Str2Reg "..."))) (RegexConcat (RegexPlus (RegexStar (Str2Reg "++"))) (RegexConcat (RegexStar (RegexPlus (Str2Reg "***"))) (RegexConcat (RegexPlus (RegexPlus (Str2Reg "))"))) (RegexConcat (RegexPlus (RegexPlus (Str2Reg "(("))) (RegexConcat (RegexStar (RegexPlus (Str2Reg "''"))) (RegexConcat (RegexUnion (RegexStar (Str2Reg "%%")) (RegexStar (Str2Reg "&"))) (RegexConcat (RegexStar (RegexStar (Str2Reg "$$"))) (RegexConcat (RegexUnion (RegexUnion (Str2Reg "Z") (Str2Reg "!!")) (RegexUnion (Str2Reg "\"") (Str2Reg "###"))) (RegexConcat (RegexStar (RegexStar (Str2Reg "Y"))) (RegexConcat (RegexPlus (RegexStar (Str2Reg "X"))) (RegexConcat (RegexPlus (RegexPlus (Str2Reg "W"))) (RegexConcat (RegexPlus (RegexPlus (Str2Reg "VVV"))) (RegexConcat (RegexPlus (RegexStar (Str2Reg "UUU"))) (RegexConcat (RegexPlus (RegexUnion (Str2Reg "SS") (Str2Reg "TTT"))) (RegexConcat (RegexStar (RegexPlus (Str2Reg "RR"))) (RegexConcat (RegexStar (RegexPlus (Str2Reg "Q"))) (RegexConcat (RegexPlus (RegexUnion (Str2Reg "OOO") (Str2Reg "PPP"))) (RegexConcat (RegexPlus (RegexStar (Str2Reg "N"))) (RegexConcat (RegexUnion (RegexPlus (Str2Reg "LL")) (RegexStar (Str2Reg "MM"))) (RegexConcat (RegexStar (RegexUnion (Str2Reg "J") (Str2Reg "K"))) (RegexConcat (RegexPlus (RegexStar (Str2Reg "I"))) (RegexConcat (RegexUnion (RegexUnion (Str2Reg "F") (Str2Reg "GGG")) (RegexStar (Str2Reg "HH"))) (RegexConcat (RegexStar (RegexPlus (Str2Reg "EE"))) (RegexConcat (RegexPlus (RegexStar (Str2Reg "DDD"))) (RegexConcat (RegexPlus (RegexStar (Str2Reg "CCC"))) (RegexConcat (RegexUnion (RegexStar (Str2Reg "AA")) (RegexPlus (Str2Reg "B"))) (RegexConcat (RegexPlus (RegexUnion (Str2Reg "y") (Str2Reg "z"))) (RegexConcat (RegexStar (RegexUnion (Str2Reg "www") (Str2Reg "xx"))) (RegexConcat (RegexUnion (RegexStar (Str2Reg "uuu")) (RegexPlus (Str2Reg "vvv"))) (RegexConcat (RegexPlus (RegexPlus (Str2Reg "t"))) (RegexConcat (RegexStar (RegexUnion (Str2Reg "r") (Str2Reg "sss"))) (RegexConcat (RegexUnion (RegexStar (Str2Reg "pp")) (RegexStar (Str2Reg "qqq"))) (RegexConcat (RegexStar (RegexPlus (Str2Reg "ooo"))) (RegexConcat (RegexUnion (RegexUnion (Str2Reg "l") (Str2Reg "mmm")) (RegexPlus (Str2Reg "n"))) (RegexConcat (RegexPlus (RegexPlus (Str2Reg "kk"))) (RegexConcat (RegexUnion (RegexStar (Str2Reg "i")) (RegexPlus (Str2Reg "j"))) (RegexConcat (RegexPlus (RegexStar (Str2Reg "h"))) (RegexConcat (RegexStar (RegexStar (Str2Reg "gg"))) (RegexConcat (RegexPlus (RegexPlus (Str2Reg "f"))) (RegexConcat (RegexPlus (RegexPlus (Str2Reg "e"))) (RegexConcat (RegexUnion (RegexPlus (Str2Reg "ccc")) (RegexPlus (Str2Reg "ddd"))) (RegexConcat (RegexPlus (RegexPlus (Str2Reg "b"))) (RegexConcat (RegexUnion (RegexStar (Str2Reg "9")) (RegexPlus (Str2Reg "aaa"))) (RegexConcat (RegexPlus (RegexPlus (Str2Reg "888"))) (RegexConcat (RegexPlus (RegexPlus (Str2Reg "7"))) (RegexConcat (RegexStar (RegexStar (Str2Reg "666"))) (RegexConcat (RegexUnion (RegexPlus (Str2Reg "3")) (RegexUnion (Str2Reg "4") (Str2Reg "5"))) (RegexConcat (RegexUnion (RegexStar (Str2Reg "1")) (RegexStar (Str2Reg "22"))) (RegexPlus (RegexStar (Str2Reg "0"))))))))))))))))))))))))))))))))))))))))))))))))))))))))))))))))))))))))))))))))))))))))))))))))))))))))))))))))))))))))))))))))))))))))))))))))))))))))
(check-sat)